benchmarks_vrp/CMT12/fixed_c/CMT12_7.vrp
NAME: CMT12_7
TYPE: CVRP
COMMENT: 819.56 - Cluster Nr.7
DIMENSION: 6
CAPACITY: 200
EDGE_WEIGHT_TYPE: EUC_2D
NODE_COORD_TYPE: TWOD_COORDS
NODE_COORD_SECTION: 
6 90 35
3 92 30
1 95 30
2 40 50
4 88 35
5 95 35
DEPOT_SECTION: 
2
-1
DEMAND_SECTION: 
3 10
5 20
6 10
4 20
2 0
1 30
EOF
