benchmarks_vrp/CMT12/fixed_c/CMT12_7.tour
NAME: CMT12_7 solution
TYPE: TOUR
TOUR_SECTION:
2 3 1 5 6 4 -1
-1
EOF